
  12   12
  10   10   10   10   10   10   10   10   10   10   10   10

   0   0   0   0   0   0   0   0   0   0   0   0   0   6 2 3 4 5 7 11 
   4   1   0   0   0   0   3   1   2   0   0   1   0   3 10 8 6 
   4   0   0   0   0   0   3   6   3   0   0   0   1   3 10 9 8 
   6   7   0   0   0   0   3   0   0   0   0   0   5   2 10 8 
   4   5   1   0   5   0   0   0   0   1   0   0   0   2 9 8 
   8   0   0   1   0   0  10   0   0   0   0   9   9   1 9 
   5   0   0   0   0   1   0   0   0   0   0   0   0   1 8 
   3   7   0   0   0   0   6   8  10   9   1   0   0   1 12
   6   0   0   5   0   0   0   6   0   0   0   0   0   1 12
   7   0   0   8   0   9   0   0   0   0   9   0   0   1 12
   9   0   9   6   0   0   0   4   0   0   0   0   0   1 12
   0   0   0   0   0   0   0   0   0   0   0   0   0   0 
